0
101
0
15
159
21
35
30
108
13
63
11
22
0
12
39
98
19
71
15
59
77
36
40
60
58
145
26
198
23
0
104
76
93
14
44
36
37
0
26
0
114
110
85
43
20
0
118
34
19
0
88
0
50
42
78
87
26
47
18
16
158
47
9
124
23
114
66
0
31
42
43
80
24
71
34
73
177
0
79
103
23
19
23
59
116
48
0
14
35
42
10
29
38
21
40
0
123
0
0
